proyfinal/src/viki/013/experimentInOfficeAgust.take6.output/ab431a41-b7e6-4d74-9d42-76bb8bfd0151.als.dat
{'cnf.clauses': '118081',
 'cnf.totvars': '69608',
 'conflict literals': '41',
 'conflicts': '16',
 'decisions': '5893',
 'memused.mb': '17.21',
 'outcome': 'UNSAT',
 'propagations': '29403',
 'restarts': '1',
 'solver.msecs': 34,
 'task.msecs': 81}
