proyfinal/src/viki/013/experimentInOfficeAgust.take6.output/ab431a41-b7e6-4d74-9d42-76bb8bfd0151.als.out
Reading from standard input... Use '--help' for help.
============================[ Problem Statistics ]=============================
|                                                                             |
|  Number of variables:         69608                                         |
|  Number of clauses:          118081                                         |
|  Parse time:                   0.03 s                                       |
|                                                                             |
============================[ Search Statistics ]==============================
| Conflicts |          ORIGINAL         |          LEARNT          | Progress |
|           |    Vars  Clauses Literals |    Limit  Clauses Lit/Cl |          |
===============================================================================
===============================================================================
restarts              : 1
conflicts             : 16             (462 /sec)
decisions             : 5893           (0.00 % random) (170288 /sec)
propagations          : 29403          (849650 /sec)
conflict literals     : 41             (0.00 % deleted)
Memory used           : 17.21 MB
CPU time              : 0.034606 s

UNSATISFIABLE
